0000000000000000
0000000000000000
0000000000000000
0000011110000000
0001111111100000
0000000000010000
0000000000011000
0000000000011000
0000000000011000
0000000000011000
0000000000011000
0000000000011000
0001111111111100
0001111111111100
0000000000000000
0000000000000000
